12 32 9 10
15 5 2 12 12 17 18 9 12 10 17 8 2 14 15 2 9 18 12 15 14 6 19 7 19 8 6 2 6 13 18 6 
4.93 7.29 6.39 3.75 5.87 4.75 4.52 2.74 4.81 1.04 3.58 2.64 5.56 2.17 1.05 5.62 2.78 5.6 1.98 6.81 1.8 7.2 7.39 3.95 7.71 6.07 3.08 0 6.46 5.64 1.37 6.5 
2.04 7.3 2.47 3.18 0.73 7.59 0.51 3.05 3.27 6.82 6.11 1.7 0.03 4.98 7.97 1.43 0.11 7.72 0.17 1.79 1.99 7.96 2.69 0 0.85 2.5 0.68 7.08 2.88 6.95 5.61 0.09 
6.53 0.74 5.93 3.81 3.02 5.65 6.83 2.39 7.66 6.57 6.25 0.93 4.37 1.57 7.87 0.02 6.61 3.11 5.12 2.64 5.36 6.38 4.48 7.73 3.91 0.2 7.06 6.12 7.13 5.39 0.46 6.49 
0.93 7.13 4.47 0.88 7.38 4.18 3.14 5.41 0.84 7.53 2.56 4.73 7.01 7.34 3.95 3.98 6.25 4.42 7.49 6.5 3.26 3.83 5.4 7.85 7.72 6.12 1.77 5.39 0.62 3.65 4.86 5.27 
5.74 7.8 2.46 7.39 2.43 2.05 6.65 2.73 6.57 4.88 1.84 1.39 7.41 4.76 2.6 2.25 4.24 5.7 5.41 0.95 2.06 2.29 7.31 6.2 3.72 1.52 2.93 5.18 2.59 1.47 2.52 3.16 
0.01 3.61 1.39 2.66 3.42 3.51 1.25 2.07 7.04 7.14 5.62 0.25 7.53 1.78 6.93 5.86 1.38 6.85 3.68 4.24 2.18 0.78 7.7 7.42 6.41 2.35 7.41 7.62 1.47 4.51 3.53 6.25 
3.51 4.82 3.46 3.55 2.05 0.79 4.23 6.36 2.11 6.22 0.55 6.81 3.61 4.87 5.82 5.35 6.83 1.84 5.3 4.74 7.2 7.72 7.41 4.95 3.03 5.1 3.76 1.28 1.15 0.84 0.03 1.32 
5.97 2.07 6.57 7.99 0.53 2.73 6.71 5.42 1.58 7.34 5.66 7.3 0.89 5.25 2.12 0.37 5.19 5.22 4.06 2.37 2.38 2.26 1.89 4.51 5.59 5.65 0.1 0.52 2.07 6.96 1.57 1.67 
2.53 7.05 1.67 2 4.42 7.99 1.45 0.83 4.65 7 4.26 3.37 6.47 2.8 0.92 7.8 6.46 0.62 1.07 3.49 4.79 3.01 4.19 6.36 6.26 6.57 5.6 2.15 6.42 2.95 3.03 4.53 
4 4 4 4 4 4 4 4 4 4 4 4 4 4 4 4 4 4 4 4 4 4 4 4 4 4 4 4 4 4 4 4 
2.2 6.49 3.05 4.56 3.55 5.83 7.44 2.38 4.62 7.79 3.32 4.94 4.37 0.58 1.38 6.88 3.67 6.89 0.82 7.51 4.12 7.17 3.4 7.02 5.06 5.87 2.63 0.96 5.26 7.01 3.25 5.38 
6.47 4.14 7.17 4.22 1.47 5.81 7.29 6.56 3.12 3.51 7.3 5.02 6.34 1.42 0.67 2.51 5.74 2.05 2.99 4.71 3.69 2.72 1.25 3.42 2.4 4.4 5.05 5.25 1.86 4.59 7.81 6.78 
1 1 1 1 1 1 1 1 1 1 1 1 1 1 1 1 1 1 1 1 1 1 1 1 1 1 1 1 1 1 1 1 
1 1 1 1 1 1 1 1 1 1 1 1 1 1 1 1 1 1 1 1 1 1 1 1 1 1 1 1 1 1 1 1 
1 1 1 1 1 1 1 1 1 1 1 1 1 1 1 1 1 1 1 1 1 1 1 1 1 1 1 1 1 1 1 1 
1 1 1 1 1 1 1 1 1 1 1 1 1 1 1 1 1 1 1 1 1 1 1 1 1 1 1 1 1 1 1 1 
1 1 1 1 1 1 1 1 1 1 1 1 1 1 1 1 1 1 1 1 1 1 1 1 1 1 1 1 1 1 1 1 
1 1 1 1 1 1 1 1 1 1 1 1 1 1 1 1 1 1 1 1 1 1 1 1 1 1 1 1 1 1 1 1 
1 1 1 1 1 1 1 1 1 1 1 1 1 1 1 1 1 1 1 1 1 1 1 1 1 1 1 1 1 1 1 1 
1 1 1 1 1 1 1 1 1 1 1 1 1 1 1 1 1 1 1 1 1 1 1 1 1 1 1 1 1 1 1 1 
1 1 1 1 1 1 1 1 1 1 1 1 1 1 1 1 1 1 1 1 1 1 1 1 1 1 1 1 1 1 1 1 
1 1 1 1 1 1 1 1 1 1 1 1 1 1 1 1 1 1 1 1 1 1 1 1 1 1 1 1 1 1 1 1 
1 1 1 1 1 1 1 1 1 1 1 1 1 1 1 1 1 1 1 1 1 1 1 1 1 1 1 1 1 1 1 1 
1 1 1 1 1 1 1 1 1 1 1 1 1 1 1 1 1 1 1 1 1 1 1 1 1 1 1 1 1 1 1 1 
0.01 0.01 0.01 0.01 0.01 0.01 0.01 0.01 0.01 0.01 0.01 0.01 0.01 0.01 0.01 0.01 0.01 0.01 0.01 0.01 0.01 0.01 0.01 0.01 0.01 0.01 0.01 0.01 0.01 0.01 0.01 0.01 
0.02 0.02 0.02 0.02 0.02 0.02 0.02 0.02 0.02 0.02 0.02 0.02 0.02 0.02 0.02 0.02 0.02 0.02 0.02 0.02 0.02 0.02 0.02 0.02 0.02 0.02 0.02 0.02 0.02 0.02 0.02 0.02 
0.03 0.03 0.03 0.03 0.03 0.03 0.03 0.03 0.03 0.03 0.03 0.03 0.03 0.03 0.03 0.03 0.03 0.03 0.03 0.03 0.03 0.03 0.03 0.03 0.03 0.03 0.03 0.03 0.03 0.03 0.03 0.03 
0.04 0.04 0.04 0.04 0.04 0.04 0.04 0.04 0.04 0.04 0.04 0.04 0.04 0.04 0.04 0.04 0.04 0.04 0.04 0.04 0.04 0.04 0.04 0.04 0.04 0.04 0.04 0.04 0.04 0.04 0.04 0.04 
0.05 0.05 0.05 0.05 0.05 0.05 0.05 0.05 0.05 0.05 0.05 0.05 0.05 0.05 0.05 0.05 0.05 0.05 0.05 0.05 0.05 0.05 0.05 0.05 0.05 0.05 0.05 0.05 0.05 0.05 0.05 0.05 
0.06 0.06 0.06 0.06 0.06 0.06 0.06 0.06 0.06 0.06 0.06 0.06 0.06 0.06 0.06 0.06 0.06 0.06 0.06 0.06 0.06 0.06 0.06 0.06 0.06 0.06 0.06 0.06 0.06 0.06 0.06 0.06 
0.07 0.07 0.07 0.07 0.07 0.07 0.07 0.07 0.07 0.07 0.07 0.07 0.07 0.07 0.07 0.07 0.07 0.07 0.07 0.07 0.07 0.07 0.07 0.07 0.07 0.07 0.07 0.07 0.07 0.07 0.07 0.07 
0.08 0.08 0.08 0.08 0.08 0.08 0.08 0.08 0.08 0.08 0.08 0.08 0.08 0.08 0.08 0.08 0.08 0.08 0.08 0.08 0.08 0.08 0.08 0.08 0.08 0.08 0.08 0.08 0.08 0.08 0.08 0.08 
0.09 0.09 0.09 0.09 0.09 0.09 0.09 0.09 0.09 0.09 0.09 0.09 0.09 0.09 0.09 0.09 0.09 0.09 0.09 0.09 0.09 0.09 0.09 0.09 0.09 0.09 0.09 0.09 0.09 0.09 0.09 0.09 
0.1 0.1 0.1 0.1 0.1 0.1 0.1 0.1 0.1 0.1 0.1 0.1 0.1 0.1 0.1 0.1 0.1 0.1 0.1 0.1 0.1 0.1 0.1 0.1 0.1 0.1 0.1 0.1 0.1 0.1 0.1 0.1 
0.5 0.5 0.5 0.5 0.5 0.5 0.5 0.5 0.5 0.5 0.5 0.5 0.5 0.5 0.5 0.5 0.5 0.5 0.5 0.5 0.5 0.5 0.5 0.5 0.5 0.5 0.5 0.5 0.5 0.5 0.5 0.5 
1 1 1 1 1 1 1 1 1 1 1 1 1 1 1 1 1 1 1 1 1 1 1 1 1 1 1 1 1 1 1 1 
